n_machines = 5;
n_resources = 8;
n_jobs = 80;
horizon = 40109;
LB = 8021;
n_jobs_per_resource = [10, 10, 10, 10, 10, 10, 10, 10];
duration = [47, 759, 49, 577, 777, 118, 803, 258, 762, 50, 899, 542, 746, 574, 214, 735, 377, 142, 201, 15, 774, 556, 780, 739, 387, 43, 319, 997, 966, 38, 273, 844, 106, 51, 663, 290, 611, 161, 201, 658, 465, 83, 984, 436, 588, 528, 476, 550, 998, 232, 162, 856, 694, 62, 731, 700, 520, 125, 783, 497, 577, 400, 136, 475, 969, 697, 348, 264, 753, 877, 121, 353, 212, 883, 797, 635, 442, 791, 974, 833]